%nprocshared=8
%mem=8GB
%chk=C:\Users\Tao\Documents\GitHub\result\0511-chooh-pair-6\chooh-pair-s-6-opt.chk
# opt b3lyp/6-31g geom=connectivity

Title Card Required

0 1
 C                  1.67315400   -1.65674000   -1.04355100
 O                  0.92689300   -1.45271000   -0.03583300
 O                  2.97788000   -1.56319100   -1.03698100
 H                  1.23698700   -1.94119000   -1.99981400
 H                  3.41190300   -1.25406500   -0.14717900
 C                  3.26366700   -0.50733200    2.21057800
 O                  3.96237600   -0.82851500    1.22558500
 O                  1.93868500   -0.59031300    2.28927200
 H                  3.70938000   -0.13114900    3.13019600
 H                  1.48986900   -0.89793500    1.43516800
 C                 -1.88213300   -2.02294100   -1.73657900
 O                 -1.00046900   -2.25550100   -2.56188200
 O                 -1.64984700   -1.57955000   -0.46749000
 H                 -2.95135800   -2.14324900   -1.92190600
 H                 -0.65630700   -1.46055600   -0.24767400
 C                 -4.19226300   -0.22080800    1.57240100
 O                 -4.01976700    0.86671700    0.99741100
 O                 -3.52212900   -1.35299100    1.35929600
 H                 -4.95579700   -0.35280200    2.34010300
 H                 -2.78885000   -1.33746800    0.66025600
 C                 -1.23635000    2.33761400   -0.44990000
 O                 -0.63702100    1.37086600    0.07770400
 O                 -2.55234100    2.50341000   -0.43433900
 H                 -0.70763400    3.13229500   -0.97655700
 H                 -3.07484100    1.80776300    0.08098900
 C                  2.40606000    2.44627700   -0.81615700
 O                  1.67353100    3.33119800   -1.27380200
 O                  1.98134700    1.36717600   -0.12005000
 H                  3.49281300    2.43726500   -0.92765100
 H                  0.96792000    1.35190800    0.00219800

 1 2 2.0 3 1.5 4 1.0
 2
 3
 4
 5
 6 7 2.0 8 1.5 9 1.0
 7
 8 10 1.0
 9
 10
 11 12 2.0 13 1.0 14 1.0
 12
 13
 14
 15
 16 17 2.0 18 1.5 19 1.0
 17
 18 20 1.0
 19
 20
 21 22 2.0 23 1.5 24 1.0
 22
 23 25 1.0
 24
 25
 26 27 2.0 28 1.0 29 1.0
 27
 28
 29
 30

