%nprocshared=8
%mem=8GB
%chk=opt-chooh.chk
# opt b3lyp/6-31g

Title Card Required

0 1
C	0.181822	-0.317588	-0.215799
O	-1.01622	-0.408203	-0.420064
O	0.714759	0.670755	0.581211
H	0.929782	-1.00346	-0.641285
H	1.68976	0.618032	0.653249
C	4.32832	-0.214361	0.163541
O	3.45909	-1.0391	-0.0589034
O	4.15305	1.12398	-0.10884
H	5.31108	-0.460254	0.593224
H	4.93542	1.66558	0.121728




