%nprocshared=8
%mem=8GB
%chk=mo2cl8-45.chk
#p b3lyp/genecp pop=full

Title Card Required

-2 1
 Mo                 0.00000000    0.00000000    0.00000000
 Mo                 0.00000000    0.00000000    2.24015797
 Cl                 0.84967788    2.05130385    2.78200000
 Cl                 2.05130385   -0.84967788    2.78200000
 Cl                -2.05130385    0.84967788    2.78200000
 Cl                -0.84967788   -2.05130385    2.78200000
 Cl                 2.05130385    0.84967788   -0.54000000
 Cl                 0.84967788   -2.05130385   -0.54000000
 Cl                -0.84967788    2.05130385   -0.54000000
 Cl                -2.05130385   -0.84967788   -0.54000000

 Cl 0
6-31g**
****
Mo 0
LanL2DZ
****

Mo 0
LanL2DZ





