%nprocshared=8
%mem=8GB
%chk=opt-AT-pair.chk
#opt b3lyp/6-31g

Title Card Required

0 1
C	-1.2962	-0.442895	-0.206766
N	-0.946802	-1.72018	-0.514227
C	0.365013	-2.06072	-0.510085
C	-0.273134	0.477232	0.1048
C	1.04496	-0.00708732	0.0719984
N	1.42173	-1.26784	-0.229227
H	0.587711	-3.08981	-0.761954
N	-2.60877	-0.107534	-0.21231
H	-3.28858	-0.813121	-0.443832
H	-2.89923	0.829859	0.0109279
N	-0.297997	1.83199	0.455339
C	0.976708	2.15415	0.62919
N	1.83385	1.07897	0.410168
H	1.33794	3.12999	0.908478
H	2.83873	1.07099	0.4791
C	5.79716	-0.172515	2.64377
C	6.4293	-0.172994	1.28148
H	4.81594	-0.660357	2.61926
H	5.62539	0.851696	2.99431
H	6.42516	-0.690109	3.37518
C	5.70544	0.485487	0.19115
C	7.62752	-0.746666	1.00562
N	8.18436	-0.72983	-0.265004
H	8.21515	-1.2498	1.76366
N	6.35292	0.449456	-1.06111
C	7.57799	-0.131143	-1.36718
H	5.87008	0.898988	-1.82936
H	9.07747	-1.16364	-0.445309
O	8.08837	-0.123125	-2.50091
O	4.59876	1.04898	0.310679









