%nprocshared=1
%mem=8GB
%chk=opt-c.chk
# opt b3lyp/6-31g

Title Card Required

0 1
C	0.219904	-1.12077	-0.433161
N	0.814212	-2.28019	-0.983435
H	1.80732	-2.27217	-1.25745
H	0.263383	-3.14114	-1.11566
N	0.962252	0.00611316	-0.265997
C	0.415156	1.13324	0.260407
O	1.10011	2.13053	0.400568
N	-0.906734	1.14657	0.633031
C	-1.67738	0.0374402	0.479639
H	-1.32812	2.01311	1.03796
C	-1.12709	-1.12425	-0.0591265
H	-2.71869	0.0552465	0.775589
H	-1.73698	-2.01027	-0.183266




