%nprocshared=1
%mem=8GB
%chk=opt-g.chk
# opt b3lyp/6-31g

Title Card Required

0 1
C	3.80772	0.863993	0.312161
O	3.18498	1.56052	0.894361
N	3.57155	0.627228	-0.996777
C	4.37487	-0.18499	-1.72517
H	2.80459	1.1051	-1.44416
N	4.18382	-0.293669	-3.12131
H	3.13161	-0.257036	-3.36104
H	4.59874	-1.22668	-3.47423
N	5.41511	-0.844185	-1.16956
C	5.66227	-0.656721	0.137798
C	4.88879	0.209198	0.89412
N	5.42357	0.272216	2.12791
C	6.5091	-0.52861	2.16164
N	6.6489	-1.08728	0.942228
H	7.14282	-0.704626	3.0238
H	7.38061	-1.72586	0.671569



