%nprocshared=8
%mem=8GB
%chk=opt-AT-pair.chk
#opt b3lyp/6-31g

Title Card Required

0 1
C       0.457047        -0.311681       1.27004
N       -0.767178       -0.270306       1.85964
C       -1.85154        0.0210491       1.10062
C       0.546093        -0.0482582      -0.11309
C       -0.65552        0.240153        -0.780899
N       -1.88373        0.288328        -0.22291
H       -2.8013 0.0408579       1.61986
N       1.5378  -0.60337        2.03309
H       1.40439 -0.781285       3.015
H       2.45742 -0.641563       1.62597
N       1.62954 -0.0126169      -0.998376
C       1.09068 0.290434        -2.17169
N       -0.290017       0.454776        -2.09869
H       1.63529 0.403319        -3.09442
H       -0.921313       0.68568 -2.84886
C       6.91818 0.746465        2.38094
C       6.40367 0.29498 1.04421
H       6.43074 0.195527        3.19351
H       6.69489 1.80652 2.54769
H       7.99971 0.601564        2.46183
C       4.96796 0.426485        0.783775
C       7.1906  -0.22554        0.0691524
N       6.68351 -0.633768       -1.15603
H       8.25905 -0.350901       0.194702
N       4.55028 -0.0151639      -0.488694
C       5.3365  -0.550875       -1.50183
H       3.56127 0.0667224       -0.69011
H       7.28937 -1.018  -1.86571
O       4.89523 -0.920317       -2.60396
O       4.13778 0.887635        1.59292







